NAME: PointSet_Angle_40_5
TYPE: TSP
COMMENT: Points chosen discrete uniformly at random out of ${0, \ldots, 500}^2$.
DIMENSION: 40
EDGE_WEIGHT_TYPE: EUC_2D
NODE_COORD_SECTION
1 425 210
2 350 117
3 420 299
4 68 210
5 359 404
6 262 39
7 268 182
8 43 301
9 205 168
10 416 373
11 48 32
12 31 87
13 160 390
14 160 419
15 176 129
16 171 100
17 85 268
18 465 5
19 66 32
20 462 171
21 182 470
22 211 197
23 152 0
24 498 103
25 415 160
26 222 209
27 439 500
28 297 98
29 135 203
30 264 312
31 78 181
32 158 164
33 449 122
34 416 262
35 154 377
36 433 83
37 347 390
38 280 245
39 137 23
40 348 51
EOF
